
Starting CP-SAT solver v9.15.6755
Parameters: random_seed: 2026073361 max_time_in_seconds: 6939.9999995256658 log_search_progress: true cp_model_presolve: true linearization_level: 2 num_search_workers: 4 cp_model_probing_level: 2 symmetry_level: 2

Initial satisfaction model '': (model_fingerprint: 0x2685c39681cc7ede)
#Variables: 724 (608 primary variables)
  - 724 Booleans in [0,1]
#kBoolAnd: 110 (#enforced: 110) (#literals: 330)
#kBoolOr: 110 (#enforced: 110) (#literals: 220)
#kExactlyOne: 87 (#literals: 261)
#kLinear1: 32 (#enforced: 6)
#kLinear2: 336 (#enforced: 336) (#complex_domain: 110)
#kLinear3: 1'600 (#enforced: 6)
#kLinearN: 1'132 (#enforced: 243) (#terms: 9'111)

Starting presolve at 0.00s
  7.24e-04s  0.00e+00d  [DetectDominanceRelations] 
  8.97e-03s  0.00e+00d  [PresolveToFixPoint] #num_loops=3 #num_dual_strengthening=1 
  3.66e-05s  0.00e+00d  [ExtractEncodingFromLinear] #potential_supersets=86 
  2.90e-04s  0.00e+00d  [DetectDuplicateColumns] 
  1.08e-04s  0.00e+00d  [DetectDuplicateConstraints] #duplicates=5 
[Symmetry] Graph for symmetry has 4'868 nodes and 15'706 arcs.
[Symmetry] Symmetry computation done. time: 0.00132673 dtime: 0.00180439
[SAT presolve] num removable Booleans: 220 / 626
[SAT presolve] num trivial clauses: 0
[SAT presolve] [0s] clauses:2'724 literals:7'408 vars:506 one_side_vars:66 simple_definition:1 singleton_clauses:0
[SAT presolve] [0.000283313s] clauses:2'723 literals:7'401 vars:506 one_side_vars:66 simple_definition:1 singleton_clauses:0
[SAT presolve] [0.000756891s] clauses:2'244 literals:6'597 vars:380 one_side_vars:73 simple_definition:65 singleton_clauses:0
  1.40e-04s  0.00e+00d  [DetectDuplicateConstraintsWithDifferentEnforcements] #without_enforcements=2 
  5.64e-03s  2.22e-03d  [Probe] #probed=1'300 #fixed_bools=16 #equiv=8 #new_binary_clauses=812 
  4.80e-04s  2.51e-04d  [MaxClique] Merged 585 constraints with 1'299 literals into 507 constraints with 1'171 literals
  9.31e-04s  0.00e+00d  [DetectDominanceRelations] 
  3.24e-03s  0.00e+00d  [PresolveToFixPoint] #num_loops=1 #num_dual_strengthening=1 
  1.18e-03s  0.00e+00d  [ProcessAtMostOneAndLinear] 
  1.08e-04s  0.00e+00d  [DetectDuplicateConstraints] #duplicates=10 
  8.93e-05s  0.00e+00d  [DetectDuplicateConstraintsWithDifferentEnforcements] 
  3.67e-03s  1.06e-04d  [DetectDominatedLinearConstraints] #relevant_constraints=826 #num_inclusions=516 #num_redundant=7 
  1.36e-04s  0.00e+00d  [DetectDifferentVariables] 
  8.08e-04s  8.36e-05d  [ProcessSetPPC] #relevant_constraints=2'994 #num_inclusions=93 
  2.99e-04s  3.36e-05d  [TransformClausesToExactlyOne] #num_amos=496 #num_clauses=1'676 #num_checked=1'676 
  5.21e-05s  0.00e+00d  [DetectEncodedComplexDomains] 
  3.30e-05s  0.00e+00d  [FindAlmostIdenticalLinearConstraints] 
  9.79e-04s  1.38e-03d  [FindBigAtMostOneAndLinearOverlap] 
  1.53e-03s  1.19e-03d  [FindBigVerticalLinearOverlap] #blocks=2 #saved_nz=68 
  4.58e-04s  6.65e-04d  [FindBigHorizontalLinearOverlap] #linears=454 
  3.59e-04s  2.71e-05d  [MergeClauses] #num_collisions=22 #num_merges=22 #num_saved_literals=110 
  9.09e-04s  0.00e+00d  [DetectDominanceRelations] 
  3.12e-03s  0.00e+00d  [PresolveToFixPoint] #num_loops=2 #num_dual_strengthening=1 
  8.94e-04s  0.00e+00d  [DetectDominanceRelations] 
  3.11e-03s  0.00e+00d  [PresolveToFixPoint] #num_loops=1 #num_dual_strengthening=1 
  2.06e-04s  0.00e+00d  [DetectDuplicateColumns] 
  1.10e-04s  0.00e+00d  [DetectDuplicateConstraints] 
[Symmetry] Graph for symmetry has 4'282 nodes and 13'463 arcs.
[Symmetry] Symmetry computation done. time: 0.000998552 dtime: 0.00144324
[SAT presolve] num removable Booleans: 93 / 475
[SAT presolve] num trivial clauses: 0
[SAT presolve] [0s] clauses:2'124 literals:6'317 vars:449 one_side_vars:148 simple_definition:75 singleton_clauses:0
[SAT presolve] [0.000228221s] clauses:2'124 literals:6'138 vars:449 one_side_vars:189 simple_definition:67 singleton_clauses:0
[SAT presolve] [0.000311505s] clauses:2'117 literals:6'129 vars:446 one_side_vars:191 simple_definition:58 singleton_clauses:0
  1.68e-04s  0.00e+00d  [DetectDuplicateConstraintsWithDifferentEnforcements] 
  4.66e-03s  1.67e-03d  [Probe] #probed=1'284 #new_binary_clauses=313 
  4.41e-04s  2.51e-04d  [MaxClique] Merged 492 constraints with 1'076 literals into 487 constraints with 1'074 literals
  9.30e-04s  0.00e+00d  [DetectDominanceRelations] 
  3.10e-03s  0.00e+00d  [PresolveToFixPoint] #num_loops=1 #num_dual_strengthening=1 
  1.14e-03s  0.00e+00d  [ProcessAtMostOneAndLinear] 
  1.52e-04s  0.00e+00d  [DetectDuplicateConstraints] 
  9.00e-05s  0.00e+00d  [DetectDuplicateConstraintsWithDifferentEnforcements] 
  9.36e-04s  5.74e-05d  [DetectDominatedLinearConstraints] #relevant_constraints=816 #num_inclusions=300 #num_redundant=1 
  1.31e-04s  0.00e+00d  [DetectDifferentVariables] 
  8.06e-04s  7.47e-05d  [ProcessSetPPC] #relevant_constraints=3'025 #num_inclusions=99 
  2.90e-04s  3.29e-05d  [TransformClausesToExactlyOne] #num_amos=488 #num_clauses=1'671 #num_checked=1'671 
  5.44e-05s  0.00e+00d  [DetectEncodedComplexDomains] 
  3.56e-05s  0.00e+00d  [FindAlmostIdenticalLinearConstraints] 
  9.35e-04s  1.23e-03d  [FindBigAtMostOneAndLinearOverlap] 
  1.46e-03s  1.10e-03d  [FindBigVerticalLinearOverlap] 
  3.75e-04s  6.29e-04d  [FindBigHorizontalLinearOverlap] #linears=454 
  3.52e-04s  2.62e-05d  [MergeClauses] #num_collisions=76 #num_merges=76 #num_saved_literals=219 
  9.32e-04s  0.00e+00d  [DetectDominanceRelations] 
  3.17e-03s  0.00e+00d  [PresolveToFixPoint] #num_loops=1 #num_dual_strengthening=1 
  9.01e-04s  0.00e+00d  [DetectDominanceRelations] 
  3.09e-03s  0.00e+00d  [PresolveToFixPoint] #num_loops=1 #num_dual_strengthening=1 
  2.30e-04s  0.00e+00d  [DetectDuplicateColumns] 
  9.48e-05s  0.00e+00d  [DetectDuplicateConstraints] 
[Symmetry] Graph for symmetry has 4'218 nodes and 13'122 arcs.
[Symmetry] Symmetry computation done. time: 0.000973405 dtime: 0.00138515
[SAT presolve] num removable Booleans: 90 / 472
[SAT presolve] num trivial clauses: 0
[SAT presolve] [0s] clauses:2'109 literals:6'108 vars:446 one_side_vars:192 simple_definition:59 singleton_clauses:0
[SAT presolve] [0.000212618s] clauses:2'109 literals:6'108 vars:446 one_side_vars:192 simple_definition:59 singleton_clauses:0
[SAT presolve] [0.000282092s] clauses:2'109 literals:6'108 vars:446 one_side_vars:192 simple_definition:59 singleton_clauses:0
  1.30e-04s  0.00e+00d  [DetectDuplicateConstraintsWithDifferentEnforcements] 
  4.62e-03s  1.67e-03d  [Probe] #probed=1'284 #new_binary_clauses=312 
  4.00e-04s  2.47e-04d  [MaxClique] Merged 486 constraints with 1'064 literals into 485 constraints with 1'063 literals
  9.39e-04s  0.00e+00d  [DetectDominanceRelations] 
  3.16e-03s  0.00e+00d  [PresolveToFixPoint] #num_loops=1 #num_dual_strengthening=1 
  1.11e-03s  0.00e+00d  [ProcessAtMostOneAndLinear] 
  1.46e-04s  0.00e+00d  [DetectDuplicateConstraints] 
  9.53e-05s  0.00e+00d  [DetectDuplicateConstraintsWithDifferentEnforcements] 
  9.15e-04s  5.69e-05d  [DetectDominatedLinearConstraints] #relevant_constraints=816 #num_inclusions=299 #num_redundant=1 
  1.40e-04s  0.00e+00d  [DetectDifferentVariables] 
  7.91e-04s  7.30e-05d  [ProcessSetPPC] #relevant_constraints=3'023 #num_inclusions=89 
  3.15e-04s  3.29e-05d  [TransformClausesToExactlyOne] #num_amos=485 #num_clauses=1'671 #num_checked=1'671 
  4.68e-05s  0.00e+00d  [DetectEncodedComplexDomains] 
  4.04e-05s  0.00e+00d  [FindAlmostIdenticalLinearConstraints] 
  8.97e-04s  1.17e-03d  [FindBigAtMostOneAndLinearOverlap] 
  1.44e-03s  1.04e-03d  [FindBigVerticalLinearOverlap] #blocks=1 #saved_nz=31 
  3.50e-04s  5.60e-04d  [FindBigHorizontalLinearOverlap] #linears=452 
  3.74e-04s  2.62e-05d  [MergeClauses] #num_collisions=76 #num_merges=76 #num_saved_literals=219 
  9.50e-04s  0.00e+00d  [DetectDominanceRelations] 
  3.18e-03s  0.00e+00d  [PresolveToFixPoint] #num_loops=2 #num_dual_strengthening=1 
  2.08e-05s  0.00e+00d  [MergeNoOverlap] 
  1.97e-05s  0.00e+00d  [MergeNoOverlap2D] 

Presolve summary:
  - 41 affine relations were detected.
  - rule 'TODO dual: only one blocking constraint?' was applied 858 times.
  - rule 'TODO dual: tighten at most one' was applied 8 times.
  - rule 'TODO linear inclusion: superset is equality' was applied 188 times.
  - rule 'affine: new relation' was applied 41 times.
  - rule 'at_most_one: removed literals' was applied 61 times.
  - rule 'at_most_one: size one' was applied 60 times.
  - rule 'at_most_one: transformed into max clique' was applied 3 times.
  - rule 'bool_or: implications' was applied 57 times.
  - rule 'bool_or: only one literal' was applied 12 times.
  - rule 'bool_or: removed enforcement literal' was applied 557 times.
  - rule 'deductions: 854 stored' was applied 1 time.
  - rule 'duplicate: merged rhs of linear constraint' was applied 14 times.
  - rule 'duplicate: removed constraint' was applied 15 times.
  - rule 'duplicate: removed enforced constraint' was applied 2 times.
  - rule 'enforcement: false literal' was applied 38 times.
  - rule 'enforcement: true literal' was applied 12 times.
  - rule 'exactly_one: removed literals' was applied 33 times.
  - rule 'exactly_one: satisfied' was applied 3 times.
  - rule 'exactly_one: singleton' was applied 3 times.
  - rule 'exactly_one: size two' was applied 30 times.
  - rule 'exactly_one: x and not(x)' was applied 6 times.
  - rule 'incompatible linear: add implication' was applied 126 times.
  - rule 'linear + amo: empty after processing' was applied 6 times.
  - rule 'linear + amo: extracted enforcement literal' was applied 54 times.
  - rule 'linear inclusion: redundant containing constraint' was applied 3 times.
  - rule 'linear inclusion: redundant included constraint' was applied 3 times.
  - rule 'linear inclusion: sparsify superset' was applied 3 times.
  - rule 'linear matrix: common vertical rectangle' was applied 3 times.
  - rule 'linear1: always true' was applied 3 times.
  - rule 'linear1: x in domain' was applied 26 times.
  - rule 'linear2: convert ax + by != cte to clauses' was applied 256 times.
  - rule 'linear2: convert implied ax + by == cte to clauses' was applied 114 times.
  - rule 'linear2: implied ax + by = cte has only one solution' was applied 8 times.
  - rule 'linear: always true' was applied 418 times.
  - rule 'linear: empty' was applied 7 times.
  - rule 'linear: enforcement literal in expression' was applied 6 times.
  - rule 'linear: extracted at most one (max)' was applied 1 time.
  - rule 'linear: fixed or dup variables' was applied 886 times.
  - rule 'linear: negative clause' was applied 1'293 times.
  - rule 'linear: negative reified and' was applied 78 times.
  - rule 'linear: never in domain' was applied 6 times.
  - rule 'linear: positive at most one' was applied 34 times.
  - rule 'linear: reduced variable domains' was applied 4 times.
  - rule 'linear: remapped using affine relations' was applied 33 times.
  - rule 'presolve: 82 unused variables removed.' was applied 1 time.
  - rule 'presolve: iteration' was applied 3 times.
  - rule 'probing: bool_or reduced to implication' was applied 21 times.
  - rule 'probing: simplified clauses' was applied 8 times.
  - rule 'setppc: bool_or in at_most_one' was applied 7 times.
  - rule 'setppc: removed dominated constraints' was applied 87 times.
  - rule 'variables: both boolean and its negation fix the same variable' was applied 3 times.
  - rule 'variables: detect half reified value encoding' was applied 6 times.

Presolved satisfaction model '': (model_fingerprint: 0x55530140b0271e5f)
#Variables: 472 (405 primary variables)
  - 472 Booleans in [0,1]
#kAtMostOne: 49 (#literals: 191)
#kBoolAnd: 262 (#enforced: 262) (#literals: 698)
#kBoolAndClauses: 76 (#enforced: 76 #multi: 76) (#literals: 371)
#kBoolOr: 1'519 (#literals: 4'642)
#kExactlyOne: 51 (#literals: 195)
#kLinearN: 814 (#enforced: 118) (#terms: 5'696)
[Symmetry] Graph for symmetry has 3'962 nodes and 13'066 arcs.
[Symmetry] Symmetry computation done. time: 0.000892104 dtime: 0.00136477

Preloading model.
#Model   0.10s var:472/472 constraints:2771/2771

Starting search at 0.10s with 4 workers.
3 full problem subsolvers: [default_lp, max_lp, no_lp]
1 first solution subsolver: [fj]
2 interleaved subsolvers: [feasibility_pump, rins/rens]
2 helper subsolvers: [neighborhood_helper, synchronization_agent]

#Model   0.24s var:471/472 constraints:2769/2771
#Model   0.52s var:470/472 constraints:2768/2771
#Model   1.20s var:469/472 constraints:2768/2771
#Model   5.12s var:468/472 constraints:2768/2771
#Model  37.70s var:467/472 constraints:2766/2771
#Model 570.99s var:466/472 constraints:2748/2771
#Model 906.69s var:465/472 constraints:2746/2771
#Model 1388.12s var:464/472 constraints:2728/2771
#Model 2678.07s var:463/472 constraints:2709/2771
#Model 2714.11s var:462/472 constraints:2690/2771
#Model 2757.76s var:459/472 constraints:2652/2771
#Model 2773.35s var:449/472 constraints:2481/2771
#Model 2797.38s var:448/472 constraints:2462/2771
#Model 2797.81s var:445/472 constraints:2442/2771
#Model 2799.26s var:444/472 constraints:2424/2771
#Model 2800.19s var:443/472 constraints:2408/2771
#Model 2800.48s var:432/472 constraints:2260/2771
#Model 2800.84s var:429/472 constraints:2209/2771
#Done  2801.12s no_lp

Task timing                   n [     min,      max]      avg      dev     time         n [     min,      max]      avg      dev    dtime
        'default_lp':         1 [  46.68m,   46.68m]   46.68m   0.00ns   46.68m         2 [  1.85ms,   45.47m]   22.73m   22.73m   45.47m
  'feasibility_pump':     13891 [780.53us, 104.10ms]   1.51ms 937.37us   20.92s     13890 [266.30us,  91.08ms] 272.84us 770.49us    3.79s
                'fj':     10539 [ 97.72ms, 192.98ms] 131.81ms   9.15ms   23.15m     10539 [ 76.50ms, 100.14ms] 100.02ms 229.49us   17.57m
            'max_lp':         1 [  46.68m,   46.68m]   46.68m   0.00ns   46.68m         2 [ 69.42ms,    1.07h]   31.95m   31.95m    1.07h
             'no_lp':         1 [  46.68m,   46.68m]   46.68m   0.00ns   46.68m         2 [  1.46ms,    1.49h]   44.69m   44.69m    1.49h
         'rins/rens':     13293 [200.77us, 178.09ms] 104.49ms  38.10ms   23.15m     13263 [399.03us, 100.36ms]  68.43ms  36.99ms   15.13m

Search stats     Bools   Conflicts    Branches  Restarts  BacktrackToRoot   Backtrack     BoolPropag  IntegerPropag
  'default_lp':    472     262'936   8'973'578     1'249        1'424'589   2'032'342     94'557'682     90'567'107
      'max_lp':    472     101'287  13'881'588       625        2'198'388   2'753'628    138'740'348    147'768'502
       'no_lp':    472  20'915'423  28'587'763    62'537          560'863  21'369'141  1'718'481'111    321'556'564

SAT formula      Fixed  Equiv  Total  VarLeft  BinaryClauses  PermanentClauses  TemporaryClauses
  'default_lp':     29      9    472      434          3'878            33'081             1'210
      'max_lp':     13      8    472      451          2'876            47'996             2'131
       'no_lp':    183      8    472      281          3'960            79'649             7'540

SAT stats        ClassicMinim   LitRemoved  LitRemovedBinary   LitLearned  LitForgotten   Subsumed
  'default_lp':       231'562    3'185'106         1'737'645    7'330'791     4'606'857     98'000
      'max_lp':        84'715      992'989           633'410    2'253'395     1'141'064     42'335
       'no_lp':    18'756'642  340'638'302       152'995'746  506'638'461   409'079'747  5'380'048

Vivification       Clauses   Decisions  LitTrue  Subsumed  LitRemoved  DecisionReused  Conflicts
  'default_lp':  1'486'681   8'370'737        1    27'330     287'421         433'182      2'733
      'max_lp':  2'270'399  13'373'048        1    27'228     286'974         544'975      2'746
       'no_lp':    434'299   3'719'509        3    32'452     425'537         102'121      2'044

Clause deletion    at_true  l_and_not(l)  to_binary  sub_conflict  sub_extra  sub_decisions  sub_eager  sub_vivify  sub_probing  sub_inpro  blocked  eliminated   forgotten    promoted   conflicts
    'default_lp':   21'867           885        227        96'344        707          3'280      1'656      27'330       16'224     26'607        0           0     131'465     498'831     262'936
        'max_lp':   10'416           998         68        41'920        239            904        415      27'228        9'006     18'043        0           0      37'661     161'747     101'287
         'no_lp':  113'802         2'482        299     5'284'720     41'776        210'916     95'328      32'452       26'438    157'449        0           0  14'869'003  47'663'633  20'915'423

Lp stats         Component  Iterations  AddedCuts  OPTIMAL  DUAL_F.  DUAL_U.
  'default_lp':          1  32'364'627     78'707  350'208        1  194'886
      'max_lp':          1  18'150'119     67'399   36'170   59'942   37'738

Lp dimension        Final dimension of first component
  'default_lp':    335 rows, 335 columns, 6099 entries
      'max_lp':  1255 rows, 472 columns, 10826 entries

Lp debug         CutPropag  CutEqPropag   Adjust  Overflow        Bad  BadScaling
  'default_lp':          0          389  194'872         0  2'001'526           0
      'max_lp':          0          213   37'728         0  1'802'232           0

Lp pool          Constraints  Updates  Simplif  Merged  Shortened  Split  Strengthened      Cuts/Call
  'default_lp':       10'480   18'800        0       0        340      0             0  78'707/84'376
      'max_lp':       12'493   20'743        0       3         60      0         1'472  67'399/87'491

Lp Cut           default_lp  max_lp
         CG_FF:       1'000     168
          CG_K:         493      13
         CG_KL:         446      10
          CG_R:       1'080      94
        Clique:           -     275
      MIR_1_FF:         399     663
       MIR_1_K:          80      31
      MIR_1_KL:         262      17
       MIR_1_R:         391     302
     MIR_1_RLT:           -   7'753
      MIR_2_FF:         402     584
       MIR_2_K:          89      82
      MIR_2_KL:         209      80
       MIR_2_R:         975     497
      MIR_3_FF:         220     181
       MIR_3_K:          36      17
      MIR_3_KL:          75      15
       MIR_3_R:         557     177
      MIR_4_FF:          67      48
       MIR_4_K:          17       6
      MIR_4_KL:          26       5
       MIR_4_R:         398     139
      MIR_5_FF:          36      18
       MIR_5_K:           8       4
      MIR_5_KL:           2       2
       MIR_5_R:         277     111
      MIR_6_FF:          14       9
       MIR_6_K:           4       1
      MIR_6_KL:           4       -
       MIR_6_R:         180     105
  ZERO_HALF_FF:         274     592
   ZERO_HALF_K:          34      10
  ZERO_HALF_KL:          55       4
   ZERO_HALF_R:      70'597  55'386

LNS stats       Improv/Calls  Closed  Difficulty  TimeLimit
  'rins/rens':   13276/13276     50%    7.99e-01       0.10

LS stats                                    Batches  Restarts/Perturbs    LinMoves    GenMoves  CompoundMoves  Bactracks  WeightUpdates  ScoreComputed
                             'fj_restart':      640                141  19'631'335           0              0          0     17'684'392        209'390
                    'fj_restart_compound':      736                156           0   8'215'862        413'900  3'900'666         22'744    130'524'208
                'fj_restart_compound_obj':      410                130           0   4'484'940        295'594  2'094'397         10'908     72'642'042
            'fj_restart_compound_perturb':      721                164           0   8'086'967        425'998  3'830'165         21'586    128'164'420
        'fj_restart_compound_perturb_obj':      937                148           0  10'642'038        443'426  5'099'033         31'791    167'045'667
                       'fj_restart_decay':      636                144  20'912'839           0              0          0        923'369      1'044'930
              'fj_restart_decay_compound':      605                139           0   7'495'785      1'269'691  3'112'717          8'408    108'667'895
          'fj_restart_decay_compound_obj':      730                105           0   9'329'676      1'576'175  3'876'467         10'020    131'735'152
      'fj_restart_decay_compound_perturb':      974                141           0  12'420'862      2'092'966  5'163'580         13'324    175'876'106
  'fj_restart_decay_compound_perturb_obj':      443                138           0   5'286'547        896'526  2'194'658          6'187     79'330'246
                   'fj_restart_decay_obj':      388                130  12'725'094           0              0          0        563'766        631'153
               'fj_restart_decay_perturb':      520                162  17'075'889           0              0          0        754'945        848'126
           'fj_restart_decay_perturb_obj':      555                149  18'255'871           0              0          0        805'212        908'402
                         'fj_restart_obj':      486                131  14'917'970           0              0          0     13'357'398        175'125
                     'fj_restart_perturb':    1'279                134  40'515'720           0              0          0     35'754'325        348'023
                 'fj_restart_perturb_obj':      479                125  14'464'293           0              0          0     13'580'955        172'638

Solution repositories    Added  Queried  Synchro
    'alternative_path':      0        0        0
      'best_solutions':      0        0        0
   'fj solution hints':  2'229        0    2'229
        'lp solutions':    945   13'293      943
                'pump':      0        0

Improving bounds shared    Num  Sym
            'default_lp':    7    0
                 'no_lp':  148    0

Clauses shared    #Exported  #Imported  #BinaryRead  #BinaryTotal
   'default_lp':      8'036     99'224        1'777         1'859
       'max_lp':      6'717     96'069        1'032         1'859
        'no_lp':     97'761     12'787        1'859         1'859

LRAT_status: NA
CpSolverResponse summary:
status: INFEASIBLE
objective: NA
best_bound: NA
integers: 335
booleans: 472
conflicts: 20915423
branches: 28587763
propagations: 1718481111
integer_propagations: 321556564
restarts: 62537
lp_iterations: 0
walltime: 2801.15
usertime: 2801.15
deterministic_time: 13890.7
gap_integral: 0

{
  "board_size": 22,
  "parity_proved": 0,
  "target": 34,
  "child_id": 1161,
  "child_count": 2640,
  "partition": "unknown_pair_x_diag_plus_twos_x_diag_minus_twos",
  "build_seconds": 0.08279943466186523,
  "workers": 4,
  "requested_seed": 2026073361,
  "effective_seed": 2026073361,
  "main_diagonal_pair": [
    3,
    4
  ],
  "pair_index": 57,
  "diag_plus_twos": 16,
  "diag_minus_twos": 15,
  "pair_excess": 0,
  "residual_certificate_slack": 112,
  "analytic_minimum_line_defect": 46,
  "analytic_defect_details": {
    "row_costs": {
      "12": 6,
      "13": 3,
      "14": 0,
      "15": 0,
      "16": 0,
      "17": 0
    },
    "column_costs": {
      "12": 6,
      "13": 3,
      "14": 0,
      "15": 0,
      "16": 0,
      "17": 0
    },
    "plus_cost": 24,
    "minus_cost": 22,
    "row_column_minimum": 0
  },
  "maximal_line_constraints": 2455,
  "analytic_infeasible": false,
  "allowed_points": 242,
  "status": "INFEASIBLE",
  "proof_method": "cp_sat_all_lines_with_certificate_profile_cuts",
  "elapsed_seconds": 2801.1524839401245,
  "branches": 28587763,
  "conflicts": 20915423
}
